30 1 5
570 842 197 467 739 850 44 811 58 706 794 365 198 102 811 316 567 216 888 416 88 444 772 323 570 610 361 711 190 574 
228 111 767 424 577 858 625 621 668 683 678 814 399 876 915 210 543 834 777 430 249 864 225 372 187 146 981 899 208 170 
824 435 633 590 210 209 447 187 181 115 221 859 280 971 86 194 532 628 27 309 409 628 524 985 999 710 130 332 608 337 
853 783 124 485 373 685 694 819 223 874 285 443 84 564 414 169 758 297 148 136 605 556 763 129 540 114 190 21 445 150 
710 297 932 833 782 304 869 475 123 92 700 759 534 136 323 299 656 80 596 804 567 552 711 330 680 251 443 222 623 887 
3710 3320 5350 3020 5160 3160 9580 3850 1420 4320 4760 1940 1900 3610 3290 5120 120 9840 9430 9590 1390 5100 5100 8500 1910 5420 4520 9850 7630 740 
71320
